NAME: I3473-n32-k4
COMMENT : (Fake et al, No of trucks: 4, Optimal value: )
TYPE : CVRP
DIMENSION : 32
EDGE_WEIGHT_TYPE : EUC_2D
CAPACITY : 41
NODE_COORD_SECTION
1 715 279
2 909 480
3 298 781
4 279 393
5 315 39
6 846 485
7 937 118
8 324 409
9 721 428
10 679 435
11 547 3
12 943 869
13 748 872
14 856 820
15 436 739
16 451 830
17 956 980
18 765 817
19 824 676
20 974 195
21 569 308
22 395 818
23 788 450
24 59 482
25 390 541
26 340 385
27 1 69
28 14 247
29 980 956
30 519 798
31 986 924
32 303 159
DEMAND_SECTION
1 0
2 5
3 9
4 3
5 1
6 6
7 2
8 8
9 7
10 1
11 6
12 9
13 6
14 2
15 1
16 6
17 2
18 5
19 3
20 4
21 5
22 5
23 7
24 3
25 4
26 7
27 5
28 7
29 8
30 1
31 6
32 7
DEPOT_SECTION
 1
 -1
 EOF 